1247.7
0 19 14 12 2 1 6 10 11 4 9 8 3 7 0
0 15 16 17 18 13 22 20 21 0
0 50 35 31 32 34 29 30 27 28 25 23 26 0
0 36 39 38 37 33 40 41 47 42 44 45 24 0
0 68 61 53 56 54 55 59 51 48 46 49 0
0 60 58 57 64 66 67 63 65 0
0 71 70 73 77 78 76 74 69 0
0 79 80 81 82 83 88 84 85 86 87 89 0
0 43 52 99 94 92 93 97 96 95 98 91 0
0 72 62 90 100 75 5 0
